\ Model GAP_copy
\ LP format - for model browsing. Use MPS format to capture full model detail.
Minimize
  19 x[0,0] + 29 x[0,1] + 17 x[0,2] + 8 x[0,3] + 12 x[0,4] - 2 x[0,6]
   + 12 x[0,7] + 21 x[0,8] + 33 x[0,9] + 22 x[0,10] + 33 x[0,11]
   + 20 x[0,12] + 22 x[0,13] + 8 x[0,14] - 4 x[0,15] - 6 x[0,16]
   - 6 x[0,17] + 15 x[0,18] + 33 x[0,19] + 6 x[0,20] + 27 x[0,21]
   - 2 x[0,22] + 8 x[0,23] + 25 x[0,24] - 4 x[0,25] + 24 x[0,26]
   + 14 x[0,27] - x[0,28] + 27 x[0,29] + 32 x[0,30] + 8 x[0,31]
   + 14 x[0,32] - 3 x[0,33] + 28 x[0,34] + 27 x[0,35] + 19 x[0,36]
   + 33 x[0,37] + 32 x[0,38] + 13 x[0,39] - 2 x[0,40] + 5 x[0,41]
   + 14 x[0,42] + 28 x[0,43] + 23 x[0,44] + 24 x[0,45] + 5 x[0,46]
   + 17 x[0,47] - 4 x[0,48] + 9 x[0,49] - 3 x[0,50] + 17 x[0,51]
   + 14 x[0,52] + 5 x[0,53] + 30 x[0,54] + 20 x[0,55] + 25 x[0,56]
   + 30 x[0,57] + 25 x[0,58] + 7 x[0,59] + 15 x[0,60] + 8 x[0,61]
   + 24 x[0,62] + 23 x[0,63] + 18 x[0,64] + 3 x[0,65] + 26 x[0,66]
   - 7 x[0,67] + 12 x[0,68] + 11 x[0,69] + 13 x[0,70] + 6 x[0,71]
   + 3 x[0,72] + 11 x[0,73] + 9 x[0,74] + 30 x[0,75] + 29 x[0,76]
   + 13 x[0,77] + x[0,78] + 30 x[0,79] + 23 x[0,82] + 28 x[0,83]
   + 26 x[0,84] + 27 x[0,85] + 31 x[0,86] + 7 x[0,87] + 31 x[0,88]
   + 6 x[0,89] + 21 x[0,90] + 28 x[0,91] + 10 x[0,92] + 19 x[0,93]
   + 3 x[0,94] - 6 x[0,95] + 9 x[0,96] + 18 x[0,97] + 10 x[0,98]
   + 24 x[0,99] - 5 x[1,0] + 16 x[1,1] + 9 x[1,2] - 7 x[1,3] + 15 x[1,4]
   + 32 x[1,5] + 29 x[1,6] + 27 x[1,7] + 24 x[1,8] + 32 x[1,9] + 24 x[1,10]
   + 28 x[1,11] + 26 x[1,12] + 27 x[1,13] + 7 x[1,14] - 3 x[1,15]
   + 4 x[1,17] + 15 x[1,18] + 22 x[1,19] + 8 x[1,20] + 12 x[1,21]
   + 11 x[1,22] + 21 x[1,23] + 21 x[1,24] - 5 x[1,25] + 25 x[1,27]
   + 5 x[1,28] + 26 x[1,29] + 14 x[1,30] + 30 x[1,31] - 2 x[1,32]
   - 7 x[1,33] + 23 x[1,34] - 5 x[1,35] + 22 x[1,36] + 17 x[1,37]
   + 11 x[1,38] + 6 x[1,39] + 18 x[1,40] + 29 x[1,41] + 31 x[1,42]
   + 23 x[1,43] + 12 x[1,44] - 4 x[1,45] + 21 x[1,46] + 20 x[1,47]
   - 3 x[1,48] - x[1,49] + 13 x[1,50] + 15 x[1,51] + 3 x[1,52] + 20 x[1,53]
   + 31 x[1,54] + 15 x[1,55] + 31 x[1,56] + 21 x[1,57] + 24 x[1,58]
   - 6 x[1,59] + 32 x[1,60] + 18 x[1,61] + 26 x[1,62] + 2 x[1,63]
   - 7 x[1,64] + 2 x[1,65] + 28 x[1,66] + 15 x[1,67] + 11 x[1,68]
   + 6 x[1,69] + 6 x[1,70] - 6 x[1,71] + 6 x[1,72] + 23 x[1,73] - 3 x[1,74]
   + 4 x[1,75] + 27 x[1,76] + 24 x[1,77] + 8 x[1,78] + 24 x[1,79]
   + 23 x[1,80] + 24 x[1,81] + 25 x[1,82] - 4 x[1,83] + 28 x[1,84]
   + 14 x[1,85] + 26 x[1,86] - 4 x[1,87] + 3 x[1,88] + 8 x[1,89]
   + 13 x[1,90] + 2 x[1,91] - 7 x[1,92] - 7 x[1,93] + 26 x[1,94]
   + 14 x[1,95] + 18 x[1,96] + 4 x[1,97] + 14 x[1,98] + 28 x[1,99]
   + 17 x[2,0] + 6 x[2,1] + 19 x[2,2] + 17 x[2,3] + 4 x[2,4] + 22 x[2,5]
   + 31 x[2,6] + 20 x[2,7] + 17 x[2,8] - 7 x[2,9] + 27 x[2,10] + 22 x[2,11]
   + 24 x[2,12] - 4 x[2,13] + 28 x[2,14] - 6 x[2,15] + 18 x[2,16]
   + 26 x[2,17] + 18 x[2,18] + 29 x[2,19] + 10 x[2,20] + 19 x[2,21]
   + 2 x[2,22] + 6 x[2,23] + 4 x[2,24] + 3 x[2,25] + 29 x[2,26]
   + 12 x[2,27] + 12 x[2,28] - 5 x[2,29] + 23 x[2,30] - 6 x[2,31]
   - 3 x[2,32] + 33 x[2,33] + 8 x[2,34] + 17 x[2,35] + 15 x[2,36]
   + 20 x[2,37] + 11 x[2,38] + 19 x[2,39] + 18 x[2,40] - 2 x[2,41]
   + 8 x[2,42] + 20 x[2,43] + 13 x[2,44] + 24 x[2,45] + 11 x[2,46]
   + 15 x[2,47] + 31 x[2,48] + 15 x[2,49] + 23 x[2,50] + 15 x[2,51]
   + 23 x[2,52] + 24 x[2,53] + 24 x[2,55] + 17 x[2,56] + 23 x[2,57]
   + 2 x[2,58] + 25 x[2,59] + 19 x[2,60] - 2 x[2,61] + 33 x[2,62]
   + 9 x[2,63] + 32 x[2,64] + 30 x[2,65] + 3 x[2,66] + 18 x[2,67]
   + 22 x[2,68] + 3 x[2,69] - 7 x[2,70] + 6 x[2,71] + 25 x[2,72]
   + 22 x[2,73] - 3 x[2,74] + 27 x[2,75] + 27 x[2,76] + 5 x[2,77]
   + 17 x[2,78] + 6 x[2,79] + 9 x[2,80] + 33 x[2,81] + 9 x[2,82]
   + 18 x[2,83] - 2 x[2,84] + 22 x[2,85] + 29 x[2,86] + 9 x[2,87]
   + 31 x[2,88] + 30 x[2,90] - x[2,91] + 27 x[2,92] + 22 x[2,93]
   + 33 x[2,94] + 29 x[2,95] + 4 x[2,96] + 33 x[2,97] + 33 x[2,98]
   - 7 x[3,0] + 25 x[3,1] + 8 x[3,2] + 7 x[3,3] - x[3,4] + 14 x[3,5]
   - 6 x[3,6] + 8 x[3,7] + 4 x[3,8] + 26 x[3,9] + 24 x[3,10] + 10 x[3,11]
   + 21 x[3,12] + 14 x[3,13] + 19 x[3,14] + 18 x[3,15] - 3 x[3,16]
   + x[3,18] + 19 x[3,19] + 8 x[3,20] + 10 x[3,21] + 27 x[3,22] + x[3,23]
   + 7 x[3,24] + 29 x[3,25] + 26 x[3,26] + 27 x[3,27] + 4 x[3,28]
   + 3 x[3,29] - 6 x[3,30] + 25 x[3,31] + 3 x[3,32] + 7 x[3,33]
   + 16 x[3,34] + 25 x[3,35] + 24 x[3,36] + 15 x[3,37] + 33 x[3,38]
   + 8 x[3,39] + 30 x[3,40] - 2 x[3,41] + 21 x[3,42] + 12 x[3,43]
   + 15 x[3,44] + 29 x[3,45] + 8 x[3,46] - 7 x[3,47] + 25 x[3,48]
   + 16 x[3,49] + 10 x[3,50] + 3 x[3,51] - 6 x[3,52] + 16 x[3,53]
   + 24 x[3,54] + 14 x[3,55] - 6 x[3,56] + 6 x[3,57] + 32 x[3,58]
   - 5 x[3,59] + 3 x[3,60] + 33 x[3,61] + 22 x[3,62] + 30 x[3,63]
   + 28 x[3,64] + 21 x[3,65] + 33 x[3,66] + 2 x[3,67] + 28 x[3,68]
   + 32 x[3,69] + 16 x[3,70] + 32 x[3,71] + 8 x[3,72] + 27 x[3,73]
   + 15 x[3,74] + 13 x[3,75] + 25 x[3,76] + 30 x[3,77] + 8 x[3,78]
   + 4 x[3,79] + 28 x[3,80] - 6 x[3,81] - 4 x[3,82] + 16 x[3,83]
   + 31 x[3,85] + 2 x[3,86] + 20 x[3,87] + 10 x[3,88] + 12 x[3,89]
   + 27 x[3,91] + 17 x[3,92] + 20 x[3,93] + 2 x[3,94] + 33 x[3,95]
   + 26 x[3,96] + 5 x[3,97] + 10 x[3,98] + 21 x[3,99] + 22 x[4,0]
   + 2 x[4,1] + 7 x[4,2] - x[4,3] + 33 x[4,4] + 3 x[4,5] + 22 x[4,6]
   - 6 x[4,7] + 9 x[4,8] + 23 x[4,9] + x[4,10] + 27 x[4,11] + 20 x[4,12]
   + 9 x[4,13] - 4 x[4,14] + 8 x[4,15] - x[4,16] - 5 x[4,17] + 22 x[4,18]
   + 2 x[4,19] + 14 x[4,20] + 12 x[4,21] + 17 x[4,22] + 31 x[4,23]
   + 25 x[4,24] - 6 x[4,25] + 15 x[4,26] + 10 x[4,27] + 22 x[4,28]
   + 9 x[4,29] + 30 x[4,30] + 20 x[4,31] + 22 x[4,32] + 32 x[4,33]
   + 20 x[4,34] + 33 x[4,35] + 16 x[4,36] + 9 x[4,37] - 5 x[4,38]
   - 5 x[4,39] + 9 x[4,40] + 21 x[4,41] + 5 x[4,42] - 4 x[4,43] - 6 x[4,44]
   + 3 x[4,45] + 23 x[4,46] + 27 x[4,47] + 8 x[4,48] + 21 x[4,49]
   + 12 x[4,50] + 20 x[4,51] - 6 x[4,52] + 2 x[4,53] + 22 x[4,54]
   + 16 x[4,55] + 10 x[4,56] + 33 x[4,57] + 16 x[4,58] + 18 x[4,59]
   + 23 x[4,60] + 30 x[4,61] + 30 x[4,62] - 2 x[4,63] + 6 x[4,64]
   - 6 x[4,65] + 21 x[4,66] + 12 x[4,67] + 19 x[4,68] + 33 x[4,69]
   + 22 x[4,70] - 5 x[4,71] + 30 x[4,72] + 4 x[4,73] + 33 x[4,74]
   + 7 x[4,75] + 12 x[4,76] + 30 x[4,77] + 18 x[4,78] + 22 x[4,79]
   + 8 x[4,80] + 25 x[4,81] + 18 x[4,82] + 13 x[4,83] + 2 x[4,84]
   + 6 x[4,85] + 5 x[4,86] + 11 x[4,87] - x[4,88] + 22 x[4,89] - 7 x[4,90]
   + 29 x[4,91] + 20 x[4,92] + 12 x[4,93] + x[4,94] + 13 x[4,95] - x[4,96]
   + 15 x[4,97] + 13 x[4,98] + 16 x[4,99] + 1700 Constant
Subject To
 R0: 15 x[0,0] + 8 x[0,1] + 11 x[0,2] + 16 x[0,3] + 24 x[0,4] + 8 x[0,5]
   + 19 x[0,6] + 9 x[0,7] + 15 x[0,8] + 7 x[0,9] + 6 x[0,10] + 13 x[0,11]
   + 10 x[0,12] + 12 x[0,13] + 25 x[0,14] + 16 x[0,15] + 21 x[0,16]
   + 18 x[0,17] + 21 x[0,18] + 21 x[0,19] + 22 x[0,20] + 8 x[0,21]
   + 18 x[0,22] + 11 x[0,23] + 12 x[0,24] + 24 x[0,25] + 15 x[0,26]
   + 13 x[0,27] + 17 x[0,28] + 21 x[0,29] + 24 x[0,30] + 23 x[0,31]
   + 23 x[0,32] + 19 x[0,33] + 20 x[0,34] + 17 x[0,35] + 13 x[0,36]
   + 12 x[0,37] + 9 x[0,38] + 22 x[0,39] + 13 x[0,40] + 14 x[0,41]
   + 25 x[0,42] + 7 x[0,43] + 9 x[0,44] + 25 x[0,45] + 20 x[0,46]
   + 13 x[0,47] + 21 x[0,48] + 20 x[0,49] + 25 x[0,50] + 5 x[0,51]
   + 11 x[0,52] + 20 x[0,53] + 10 x[0,54] + 17 x[0,55] + 5 x[0,56]
   + 25 x[0,57] + 11 x[0,58] + 6 x[0,59] + 14 x[0,60] + 24 x[0,61]
   + 17 x[0,62] + 7 x[0,63] + 16 x[0,64] + 10 x[0,65] + 15 x[0,66]
   + 9 x[0,67] + 15 x[0,68] + 13 x[0,69] + 23 x[0,70] + 13 x[0,71]
   + 12 x[0,72] + 13 x[0,73] + 5 x[0,74] + 8 x[0,75] + 15 x[0,76]
   + 19 x[0,77] + 7 x[0,78] + 13 x[0,79] + 21 x[0,80] + 10 x[0,81]
   + 12 x[0,82] + 9 x[0,83] + 11 x[0,84] + 11 x[0,85] + 23 x[0,86]
   + 5 x[0,87] + 18 x[0,88] + 13 x[0,89] + 19 x[0,90] + 20 x[0,91]
   + 24 x[0,92] + 9 x[0,93] + 22 x[0,94] + 25 x[0,95] + 21 x[0,96]
   + 14 x[0,97] + 19 x[0,98] + 21 x[0,99] <= 342
 R1: 8 x[1,0] + 10 x[1,1] + 7 x[1,2] + 23 x[1,3] + 20 x[1,4] + 9 x[1,5]
   + 7 x[1,6] + 11 x[1,7] + 21 x[1,8] + 9 x[1,9] + 16 x[1,10] + 20 x[1,11]
   + 9 x[1,12] + 25 x[1,13] + 10 x[1,14] + 14 x[1,15] + 20 x[1,16]
   + 23 x[1,17] + 23 x[1,18] + 25 x[1,19] + 13 x[1,20] + 14 x[1,21]
   + 7 x[1,22] + 14 x[1,23] + 9 x[1,24] + 25 x[1,25] + 18 x[1,26]
   + 17 x[1,27] + 10 x[1,28] + 14 x[1,29] + 21 x[1,30] + 6 x[1,31]
   + 15 x[1,32] + 8 x[1,33] + 10 x[1,34] + 24 x[1,35] + 17 x[1,36]
   + 25 x[1,37] + 15 x[1,38] + 21 x[1,39] + 20 x[1,40] + 12 x[1,41]
   + 15 x[1,42] + 16 x[1,43] + 7 x[1,44] + 17 x[1,45] + 12 x[1,46]
   + 8 x[1,47] + 21 x[1,48] + 19 x[1,49] + 14 x[1,50] + 19 x[1,51]
   + 7 x[1,52] + 25 x[1,53] + 16 x[1,54] + 20 x[1,55] + 17 x[1,56]
   + 18 x[1,57] + 21 x[1,58] + 8 x[1,59] + 11 x[1,60] + 10 x[1,61]
   + 19 x[1,62] + 11 x[1,63] + 16 x[1,64] + 13 x[1,65] + 11 x[1,66]
   + 14 x[1,67] + 16 x[1,68] + 15 x[1,69] + 17 x[1,70] + 13 x[1,71]
   + 7 x[1,72] + 10 x[1,73] + 5 x[1,74] + 25 x[1,75] + 7 x[1,76]
   + 12 x[1,77] + 18 x[1,78] + 12 x[1,79] + 16 x[1,80] + 12 x[1,81]
   + 16 x[1,82] + 14 x[1,83] + 8 x[1,84] + 17 x[1,85] + 8 x[1,86]
   + 16 x[1,87] + 11 x[1,88] + 23 x[1,89] + 22 x[1,90] + 22 x[1,91]
   + 23 x[1,92] + 17 x[1,93] + 16 x[1,94] + 8 x[1,95] + 18 x[1,96]
   + 19 x[1,97] + 10 x[1,98] + 7 x[1,99] <= 342
 R2: 22 x[2,0] + 9 x[2,1] + 13 x[2,2] + 12 x[2,3] + 22 x[2,4] + 7 x[2,5]
   + 10 x[2,6] + 8 x[2,7] + 15 x[2,8] + 12 x[2,9] + 15 x[2,10] + 15 x[2,11]
   + 12 x[2,12] + 16 x[2,13] + 7 x[2,14] + 15 x[2,15] + 17 x[2,16]
   + 20 x[2,17] + 16 x[2,18] + 12 x[2,19] + 21 x[2,20] + 17 x[2,21]
   + 10 x[2,22] + 19 x[2,23] + 16 x[2,24] + 21 x[2,25] + 23 x[2,26]
   + 23 x[2,27] + 6 x[2,28] + 21 x[2,29] + 24 x[2,30] + 18 x[2,31]
   + 8 x[2,32] + 11 x[2,33] + 8 x[2,34] + 10 x[2,35] + 22 x[2,36]
   + 16 x[2,37] + 5 x[2,38] + 9 x[2,39] + 5 x[2,40] + 12 x[2,41]
   + 18 x[2,42] + 15 x[2,43] + 16 x[2,44] + 8 x[2,45] + 22 x[2,46]
   + 5 x[2,47] + 5 x[2,48] + 12 x[2,49] + 17 x[2,50] + 5 x[2,51]
   + 18 x[2,52] + 24 x[2,53] + 12 x[2,54] + 20 x[2,55] + 13 x[2,56]
   + 25 x[2,57] + 17 x[2,58] + 7 x[2,59] + 9 x[2,60] + 21 x[2,61]
   + 23 x[2,62] + 20 x[2,63] + 5 x[2,64] + 20 x[2,65] + 13 x[2,66]
   + 12 x[2,67] + 9 x[2,68] + 8 x[2,69] + 6 x[2,70] + 7 x[2,71] + 8 x[2,72]
   + 21 x[2,73] + 5 x[2,74] + 21 x[2,75] + 17 x[2,76] + 13 x[2,77]
   + 9 x[2,78] + 8 x[2,79] + 17 x[2,80] + 11 x[2,81] + 17 x[2,82]
   + 25 x[2,83] + 12 x[2,84] + 8 x[2,85] + 11 x[2,86] + 6 x[2,87]
   + 8 x[2,88] + 5 x[2,89] + 23 x[2,90] + 25 x[2,91] + 18 x[2,92]
   + 25 x[2,93] + 18 x[2,94] + 5 x[2,95] + 12 x[2,96] + 8 x[2,97]
   + 7 x[2,98] + 9 x[2,99] <= 342
 R3: 6 x[3,0] + 5 x[3,1] + 24 x[3,2] + 24 x[3,3] + 24 x[3,4] + 23 x[3,5]
   + 8 x[3,6] + 8 x[3,7] + 6 x[3,8] + 18 x[3,9] + 20 x[3,10] + 7 x[3,11]
   + 8 x[3,12] + 6 x[3,13] + 7 x[3,14] + 5 x[3,15] + 21 x[3,16]
   + 25 x[3,17] + 5 x[3,18] + 18 x[3,19] + 7 x[3,20] + 13 x[3,21]
   + 11 x[3,22] + 5 x[3,23] + 23 x[3,24] + 20 x[3,25] + 15 x[3,26]
   + 8 x[3,27] + 21 x[3,28] + 23 x[3,29] + 15 x[3,30] + 23 x[3,31]
   + 20 x[3,32] + 9 x[3,33] + 6 x[3,34] + 17 x[3,35] + 23 x[3,36]
   + 15 x[3,37] + 19 x[3,38] + 25 x[3,39] + 17 x[3,40] + 15 x[3,41]
   + 17 x[3,42] + 23 x[3,43] + 5 x[3,44] + 23 x[3,45] + 7 x[3,46]
   + 15 x[3,47] + 17 x[3,48] + 5 x[3,49] + 13 x[3,50] + 15 x[3,51]
   + 9 x[3,52] + 15 x[3,53] + 21 x[3,54] + 12 x[3,55] + 19 x[3,56]
   + 24 x[3,57] + 19 x[3,58] + 19 x[3,59] + 13 x[3,60] + 5 x[3,61]
   + 9 x[3,62] + 24 x[3,63] + 15 x[3,64] + 9 x[3,65] + 18 x[3,66]
   + 7 x[3,67] + 10 x[3,68] + 12 x[3,69] + 19 x[3,70] + 5 x[3,71]
   + 25 x[3,72] + 20 x[3,73] + 23 x[3,74] + 18 x[3,75] + 10 x[3,76]
   + 18 x[3,77] + 22 x[3,78] + 9 x[3,79] + 20 x[3,80] + 12 x[3,81]
   + 6 x[3,82] + 15 x[3,83] + 23 x[3,84] + 10 x[3,85] + 16 x[3,86]
   + 15 x[3,87] + 22 x[3,88] + 12 x[3,89] + 7 x[3,90] + 9 x[3,91]
   + 7 x[3,92] + 12 x[3,93] + 9 x[3,94] + 14 x[3,95] + 22 x[3,96]
   + 15 x[3,97] + 22 x[3,98] + 13 x[3,99] <= 342
 R4: 23 x[4,0] + 19 x[4,1] + 18 x[4,2] + 17 x[4,3] + 25 x[4,4] + 14 x[4,5]
   + 15 x[4,6] + 12 x[4,7] + 11 x[4,8] + 5 x[4,9] + 25 x[4,10] + 14 x[4,11]
   + 8 x[4,12] + 8 x[4,13] + 16 x[4,14] + 17 x[4,15] + 11 x[4,16]
   + 12 x[4,17] + 8 x[4,18] + 14 x[4,19] + 10 x[4,20] + 9 x[4,21]
   + 20 x[4,22] + 9 x[4,23] + 9 x[4,24] + 13 x[4,25] + 21 x[4,26]
   + 22 x[4,27] + 10 x[4,28] + 5 x[4,29] + 15 x[4,30] + 12 x[4,31]
   + 6 x[4,32] + 19 x[4,33] + 10 x[4,34] + 12 x[4,35] + 16 x[4,36]
   + 23 x[4,37] + 11 x[4,38] + 6 x[4,39] + 14 x[4,40] + 12 x[4,41]
   + 14 x[4,42] + 22 x[4,43] + 5 x[4,44] + 23 x[4,45] + 9 x[4,46]
   + 18 x[4,47] + 7 x[4,48] + 9 x[4,49] + 17 x[4,50] + 18 x[4,51]
   + 22 x[4,52] + 22 x[4,53] + 8 x[4,54] + 9 x[4,55] + 18 x[4,56]
   + 14 x[4,57] + 16 x[4,58] + 6 x[4,59] + 12 x[4,60] + 20 x[4,61]
   + 15 x[4,62] + 21 x[4,63] + 23 x[4,64] + 7 x[4,65] + 18 x[4,66]
   + 16 x[4,67] + 20 x[4,68] + 14 x[4,69] + 22 x[4,70] + 21 x[4,71]
   + 13 x[4,72] + 22 x[4,73] + 18 x[4,74] + 18 x[4,75] + 14 x[4,76]
   + 9 x[4,77] + 10 x[4,78] + 15 x[4,79] + 18 x[4,80] + 6 x[4,81]
   + 7 x[4,82] + 6 x[4,83] + 20 x[4,84] + 22 x[4,85] + 25 x[4,86]
   + 18 x[4,87] + 25 x[4,88] + 12 x[4,89] + 17 x[4,90] + 18 x[4,91]
   + 25 x[4,92] + 24 x[4,93] + 14 x[4,94] + 17 x[4,95] + 22 x[4,96]
   + 13 x[4,97] + 11 x[4,98] + 22 x[4,99] <= 342
Bounds
 Constant = 1
Binaries
 x[0,0] x[0,1] x[0,2] x[0,3] x[0,4] x[0,5] x[0,6] x[0,7] x[0,8] x[0,9]
 x[0,10] x[0,11] x[0,12] x[0,13] x[0,14] x[0,15] x[0,16] x[0,17] x[0,18]
 x[0,19] x[0,20] x[0,21] x[0,22] x[0,23] x[0,24] x[0,25] x[0,26] x[0,27]
 x[0,28] x[0,29] x[0,30] x[0,31] x[0,32] x[0,33] x[0,34] x[0,35] x[0,36]
 x[0,37] x[0,38] x[0,39] x[0,40] x[0,41] x[0,42] x[0,43] x[0,44] x[0,45]
 x[0,46] x[0,47] x[0,48] x[0,49] x[0,50] x[0,51] x[0,52] x[0,53] x[0,54]
 x[0,55] x[0,56] x[0,57] x[0,58] x[0,59] x[0,60] x[0,61] x[0,62] x[0,63]
 x[0,64] x[0,65] x[0,66] x[0,67] x[0,68] x[0,69] x[0,70] x[0,71] x[0,72]
 x[0,73] x[0,74] x[0,75] x[0,76] x[0,77] x[0,78] x[0,79] x[0,80] x[0,81]
 x[0,82] x[0,83] x[0,84] x[0,85] x[0,86] x[0,87] x[0,88] x[0,89] x[0,90]
 x[0,91] x[0,92] x[0,93] x[0,94] x[0,95] x[0,96] x[0,97] x[0,98] x[0,99]
 x[1,0] x[1,1] x[1,2] x[1,3] x[1,4] x[1,5] x[1,6] x[1,7] x[1,8] x[1,9]
 x[1,10] x[1,11] x[1,12] x[1,13] x[1,14] x[1,15] x[1,16] x[1,17] x[1,18]
 x[1,19] x[1,20] x[1,21] x[1,22] x[1,23] x[1,24] x[1,25] x[1,26] x[1,27]
 x[1,28] x[1,29] x[1,30] x[1,31] x[1,32] x[1,33] x[1,34] x[1,35] x[1,36]
 x[1,37] x[1,38] x[1,39] x[1,40] x[1,41] x[1,42] x[1,43] x[1,44] x[1,45]
 x[1,46] x[1,47] x[1,48] x[1,49] x[1,50] x[1,51] x[1,52] x[1,53] x[1,54]
 x[1,55] x[1,56] x[1,57] x[1,58] x[1,59] x[1,60] x[1,61] x[1,62] x[1,63]
 x[1,64] x[1,65] x[1,66] x[1,67] x[1,68] x[1,69] x[1,70] x[1,71] x[1,72]
 x[1,73] x[1,74] x[1,75] x[1,76] x[1,77] x[1,78] x[1,79] x[1,80] x[1,81]
 x[1,82] x[1,83] x[1,84] x[1,85] x[1,86] x[1,87] x[1,88] x[1,89] x[1,90]
 x[1,91] x[1,92] x[1,93] x[1,94] x[1,95] x[1,96] x[1,97] x[1,98] x[1,99]
 x[2,0] x[2,1] x[2,2] x[2,3] x[2,4] x[2,5] x[2,6] x[2,7] x[2,8] x[2,9]
 x[2,10] x[2,11] x[2,12] x[2,13] x[2,14] x[2,15] x[2,16] x[2,17] x[2,18]
 x[2,19] x[2,20] x[2,21] x[2,22] x[2,23] x[2,24] x[2,25] x[2,26] x[2,27]
 x[2,28] x[2,29] x[2,30] x[2,31] x[2,32] x[2,33] x[2,34] x[2,35] x[2,36]
 x[2,37] x[2,38] x[2,39] x[2,40] x[2,41] x[2,42] x[2,43] x[2,44] x[2,45]
 x[2,46] x[2,47] x[2,48] x[2,49] x[2,50] x[2,51] x[2,52] x[2,53] x[2,54]
 x[2,55] x[2,56] x[2,57] x[2,58] x[2,59] x[2,60] x[2,61] x[2,62] x[2,63]
 x[2,64] x[2,65] x[2,66] x[2,67] x[2,68] x[2,69] x[2,70] x[2,71] x[2,72]
 x[2,73] x[2,74] x[2,75] x[2,76] x[2,77] x[2,78] x[2,79] x[2,80] x[2,81]
 x[2,82] x[2,83] x[2,84] x[2,85] x[2,86] x[2,87] x[2,88] x[2,89] x[2,90]
 x[2,91] x[2,92] x[2,93] x[2,94] x[2,95] x[2,96] x[2,97] x[2,98] x[2,99]
 x[3,0] x[3,1] x[3,2] x[3,3] x[3,4] x[3,5] x[3,6] x[3,7] x[3,8] x[3,9]
 x[3,10] x[3,11] x[3,12] x[3,13] x[3,14] x[3,15] x[3,16] x[3,17] x[3,18]
 x[3,19] x[3,20] x[3,21] x[3,22] x[3,23] x[3,24] x[3,25] x[3,26] x[3,27]
 x[3,28] x[3,29] x[3,30] x[3,31] x[3,32] x[3,33] x[3,34] x[3,35] x[3,36]
 x[3,37] x[3,38] x[3,39] x[3,40] x[3,41] x[3,42] x[3,43] x[3,44] x[3,45]
 x[3,46] x[3,47] x[3,48] x[3,49] x[3,50] x[3,51] x[3,52] x[3,53] x[3,54]
 x[3,55] x[3,56] x[3,57] x[3,58] x[3,59] x[3,60] x[3,61] x[3,62] x[3,63]
 x[3,64] x[3,65] x[3,66] x[3,67] x[3,68] x[3,69] x[3,70] x[3,71] x[3,72]
 x[3,73] x[3,74] x[3,75] x[3,76] x[3,77] x[3,78] x[3,79] x[3,80] x[3,81]
 x[3,82] x[3,83] x[3,84] x[3,85] x[3,86] x[3,87] x[3,88] x[3,89] x[3,90]
 x[3,91] x[3,92] x[3,93] x[3,94] x[3,95] x[3,96] x[3,97] x[3,98] x[3,99]
 x[4,0] x[4,1] x[4,2] x[4,3] x[4,4] x[4,5] x[4,6] x[4,7] x[4,8] x[4,9]
 x[4,10] x[4,11] x[4,12] x[4,13] x[4,14] x[4,15] x[4,16] x[4,17] x[4,18]
 x[4,19] x[4,20] x[4,21] x[4,22] x[4,23] x[4,24] x[4,25] x[4,26] x[4,27]
 x[4,28] x[4,29] x[4,30] x[4,31] x[4,32] x[4,33] x[4,34] x[4,35] x[4,36]
 x[4,37] x[4,38] x[4,39] x[4,40] x[4,41] x[4,42] x[4,43] x[4,44] x[4,45]
 x[4,46] x[4,47] x[4,48] x[4,49] x[4,50] x[4,51] x[4,52] x[4,53] x[4,54]
 x[4,55] x[4,56] x[4,57] x[4,58] x[4,59] x[4,60] x[4,61] x[4,62] x[4,63]
 x[4,64] x[4,65] x[4,66] x[4,67] x[4,68] x[4,69] x[4,70] x[4,71] x[4,72]
 x[4,73] x[4,74] x[4,75] x[4,76] x[4,77] x[4,78] x[4,79] x[4,80] x[4,81]
 x[4,82] x[4,83] x[4,84] x[4,85] x[4,86] x[4,87] x[4,88] x[4,89] x[4,90]
 x[4,91] x[4,92] x[4,93] x[4,94] x[4,95] x[4,96] x[4,97] x[4,98] x[4,99]
End
